p cnf 22 10
a 1 0
e 2 3 0
a 4 0
e 5 0
a 6 0
e 7 0
a 8 9 0
e 10 11 12 13 0
a 14 15 16 0
e 17 0
a 18 0
e 19 0
a 20 0
e 21 0
a 22 0
3 -17 -15 0
-19 6 -2 -9 14 0
15 7 -19 -8 16 0
-9 -14 -18 4 -6 0
-8 1 -21 22 9 0
-3 10 -6 14 22 0
-17 9 -8 16 0
20 -15 -9 0
12 6 8 0
13 6 17 -9 0
